17	4
28	30	26	22	
0	0	0	0	0	3	2	3	4	
7	5	1	0	0	3	6	17	17	
2	0	5	10	10	3	5	11	17	
9	6	4	5	7	3	6	7	17	
1	3	0	4	2	3	8	17	17	
250	6	3	2	1	2	16	17	
175	4	9	6	0	2	9	13	
250	4	5	8	5	3	9	12	16	
150	6	0	5	0	1	10	
200	0	9	2	6	2	14	17	
150	0	3	3	2	3	17	17	17	
75	7	2	0	0	2	17	17	
4	0	1	7	9	2	17	17	
2	3	8	0	3	1	15	
10	0	10	3	0	1	17	
7	5	9	4	9	2	17	17	
0	0	0	0	0	0	
